
Gurobi 7.5.2 (linux64) logging started Sat Jul  7 16:01:40 2018

Changed value of parameter LogFile to result/ilp/simNo_2-n_100-m_40-s_4-minVAF_0.05-cov_10000-k_2-fn_0.25-fp_0.0001-na_0.15.ILP.gurobiSolverLog
   Prev: gurobi.log  Default: 
Changed value of parameter TimeLimit to 86400.0
   Prev: 1e+100  Min: 0.0  Max: 1e+100  Default: 1e+100
Optimize a model with 639293 rows, 10765 columns and 1940420 nonzeros
Variable types: 0 continuous, 10765 integer (10765 binary)
Coefficient statistics:
  Matrix range     [2e-04, 4e+00]
  Objective range  [1e+00, 2e+01]
  Bounds range     [1e+00, 1e+00]
  RHS range        [2e-01, 2e+00]
Found heuristic solution: objective -16683.71401
Presolve removed 120831 rows and 942 columns (presolve time = 5s) ...
Presolve removed 121328 rows and 942 columns (presolve time = 14s) ...
Presolve removed 171028 rows and 1439 columns (presolve time = 16s) ...
Presolve removed 171028 rows and 1439 columns (presolve time = 21s) ...
Presolve removed 171028 rows and 1439 columns
Presolve time: 20.92s
Presolved: 468265 rows, 9326 columns, 1410152 nonzeros
Variable types: 0 continuous, 9326 integer (9326 binary)
Presolved: 9326 rows, 477591 columns, 1419478 nonzeros

Presolve removed 9326 rows and 477591 columns

Root simplex log...

Iteration    Objective       Primal Inf.    Dual Inf.      Time
       0    4.4257888e+01   0.000000e+00   8.872100e+04     26s
   19854   -2.9305891e+02   0.000000e+00   2.668343e+05     30s
   31873   -3.3838557e+02   0.000000e+00   7.936283e+05     35s
   43467   -3.6242848e+02   0.000000e+00   1.928290e+06     40s
   54045   -3.8267989e+02   0.000000e+00   5.014395e+05     45s
   64585   -4.1035857e+02   0.000000e+00   1.818421e+05     50s
   75144   -4.3038540e+02   0.000000e+00   4.915513e+04     55s
   86770   -4.5282158e+02   0.000000e+00   4.246321e+05     60s
   98635   -4.7368681e+02   0.000000e+00   7.026965e+04     65s
  113573   -5.0298248e+02   0.000000e+00   4.963946e+03     70s
  120869   -5.1040203e+02   0.000000e+00   0.000000e+00     74s
  120869   -5.1040203e+02   0.000000e+00   0.000000e+00     75s

Root relaxation: objective -5.104020e+02, 120869 iterations, 52.51 seconds
Total elapsed time = 290.61s
Total elapsed time = 464.07s

    Nodes    |    Current Node    |     Objective Bounds      |     Work
 Expl Unexpl |  Obj  Depth IntInf | Incumbent    BestBd   Gap | It/Node Time

     0     0 -510.40203    0 2996 -16683.714 -510.40203  96.9%     -  604s
H    0     0                    -758.1680771 -510.40203  32.7%     -  608s
H    0     0                    -721.7804783 -510.40203  29.3%     -  610s
     0     0 -512.56171    0 3007 -721.78048 -512.56171  29.0%     - 1135s
H    0     0                    -710.4542249 -512.56171  27.9%     - 1155s
     0     0 -513.04938    0 3005 -710.45422 -513.04938  27.8%     - 1165s
     0     0 -515.00007    0 2987 -710.45422 -515.00007  27.5%     - 1487s
H    0     0                    -676.2959799 -515.00007  23.8%     - 1492s
     0     0 -515.23133    0 3007 -676.29598 -515.23133  23.8%     - 1551s
     0     0 -515.24229    0 3033 -676.29598 -515.24229  23.8%     - 1570s
     0     0 -515.24652    0 3041 -676.29598 -515.24652  23.8%     - 1581s
     0     0 -515.25348    0 3039 -676.29598 -515.25348  23.8%     - 1591s
     0     0 -515.25563    0 3039 -676.29598 -515.25563  23.8%     - 1600s
     0     0 -516.06185    0 3010 -676.29598 -516.06185  23.7%     - 1698s
H    0     0                    -658.1021806 -516.06185  21.6%     - 1703s
     0     0 -516.12950    0 3031 -658.10218 -516.12950  21.6%     - 1718s
     0     0 -516.17420    0 3031 -658.10218 -516.17420  21.6%     - 1728s
     0     0 -516.18003    0 3013 -658.10218 -516.18003  21.6%     - 1737s
     0     0 -517.30147    0 3026 -658.10218 -517.30147  21.4%     - 3527s
H    0     0                    -653.6434730 -517.30147  20.9%     - 3534s
     0     0 -517.30147    0 3021 -653.64347 -517.30147  20.9%     - 3536s
     0     0 -518.81312    0 3059 -653.64347 -518.81312  20.6%     - 3938s
H    0     0                    -649.1847655 -518.81312  20.1%     - 3946s
     0     0 -519.20516    0 3090 -649.18477 -519.20516  20.0%     - 4208s
     0     0 -519.25762    0 3048 -649.18477 -519.25762  20.0%     - 4234s
     0     0 -519.27216    0 3084 -649.18477 -519.27216  20.0%     - 4253s
     0     0 -519.27237    0 3092 -649.18477 -519.27237  20.0%     - 4257s
     0     0 -520.28255    0 3085 -649.18477 -520.28255  19.9%     - 7361s
     0     0 -520.56122    0 3076 -649.18477 -520.56122  19.8%     - 7489s
     0     0 -520.56122    0 3079 -649.18477 -520.56122  19.8%     - 7494s
     0     0 -520.84992    0 3096 -649.18477 -520.84992  19.8%     - 11436s
H    0     0                    -644.7260579 -520.84992  19.2%     - 11452s
     0     0 -521.21285    0 3065 -644.72606 -521.21285  19.2%     - 11687s
     0     0 -521.25027    0 3048 -644.72606 -521.25027  19.2%     - 11720s
     0     0 -521.25027    0 3049 -644.72606 -521.25027  19.2%     - 11730s
     0     0 -522.17512    0 3041 -644.72606 -522.17512  19.0%     - 12957s
H    0     0                    -641.3820272 -522.17512  18.6%     - 12990s
     0     0 -522.67285    0 3043 -641.38203 -522.67285  18.5%     - 15596s
     0     0 -522.72858    0 3042 -641.38203 -522.72858  18.5%     - 15605s
     0     0 -522.72858    0 3044 -641.38203 -522.72858  18.5%     - 15610s
     0     0 -524.14367    0 3054 -641.38203 -524.14367  18.3%     - 17848s
H    0     0                    -631.1704506 -524.14367  17.0%     - 17898s
     0     0 -524.32388    0 3040 -631.17045 -524.32388  16.9%     - 17996s
     0     0 -524.39354    0 3036 -631.17045 -524.39354  16.9%     - 18012s
     0     0 -524.39935    0 3036 -631.17045 -524.39935  16.9%     - 18021s
     0     0 -524.39935    0 3038 -631.17045 -524.39935  16.9%     - 18025s
     0     0 -525.01287    0 3038 -631.17045 -525.01287  16.8%     - 18395s
     0     0 -525.19260    0 3125 -631.17045 -525.19260  16.8%     - 18911s
     0     0 -525.25713    0 3124 -631.17045 -525.25713  16.8%     - 19006s
     0     0 -525.25713    0 3126 -631.17045 -525.25713  16.8%     - 19015s
     0     0 -525.79470    0 3037 -631.17045 -525.79470  16.7%     - 20451s
     0     0 -525.86988    0 3100 -631.17045 -525.86988  16.7%     - 20674s
     0     0 -525.86988    0 3104 -631.17045 -525.86988  16.7%     - 20687s
     0     0 -526.79707    0 3045 -631.17045 -526.79707  16.5%     - 23779s
     0     0 -527.05251    0 3036 -631.17045 -527.05251  16.5%     - 23980s
     0     0 -527.15081    0 3092 -631.17045 -527.15081  16.5%     - 24090s
     0     0 -527.15081    0 3109 -631.17045 -527.15081  16.5%     - 24107s
     0     0 -527.85231    0 3032 -631.17045 -527.85231  16.4%     - 26922s
     0     0 -528.37588    0 3119 -631.17045 -528.37588  16.3%     - 27875s
     0     0 -528.40107    0 3030 -631.17045 -528.40107  16.3%     - 28085s
     0     0 -528.40107    0 3036 -631.17045 -528.40107  16.3%     - 28096s
     0     0 -529.07612    0 3134 -631.17045 -529.07612  16.2%     - 29270s
     0     0 -529.15569    0 3137 -631.17045 -529.15569  16.2%     - 29530s
     0     0 -529.17691    0 3139 -631.17045 -529.17691  16.2%     - 29597s
     0     0 -529.17730    0 3143 -631.17045 -529.17730  16.2%     - 29605s
     0     0 -530.14198    0 3111 -631.17045 -530.14198  16.0%     - 31482s
     0     0 -530.25805    0 3015 -631.17045 -530.25805  16.0%     - 31646s
     0     0 -530.35094    0 3020 -631.17045 -530.35094  16.0%     - 31743s
     0     0 -530.36255    0 3032 -631.17045 -530.36255  16.0%     - 31761s
     0     0 -530.39739    0 3033 -631.17045 -530.39739  16.0%     - 31777s
     0     0 -530.39739    0 3027 -631.17045 -530.39739  16.0%     - 31784s
     0     0 -530.86171    0 3029 -631.17045 -530.86171  15.9%     - 32916s
     0     0 -531.04696    0 3121 -631.17045 -531.04696  15.9%     - 33218s
     0     0 -531.06797    0 3118 -631.17045 -531.06797  15.9%     - 33248s
     0     0 -531.07587    0 3116 -631.17045 -531.07587  15.9%     - 33258s
     0     0 -531.07587    0 3117 -631.17045 -531.07587  15.9%     - 33262s
     0     0 -531.33473    0 3119 -631.17045 -531.33473  15.8%     - 33579s
     0     0 -531.48840    0 3120 -631.17045 -531.48840  15.8%     - 33889s
     0     0 -531.66207    0 3133 -631.17045 -531.66207  15.8%     - 35891s
     0     0 -531.66907    0 3136 -631.17045 -531.66907  15.8%     - 35904s
     0     0 -531.66907    0 3135 -631.17045 -531.66907  15.8%     - 35908s
     0     0 -532.62504    0 3120 -631.17045 -532.62504  15.6%     - 39971s
     0     0 -532.84870    0 3122 -631.17045 -532.84870  15.6%     - 40141s
     0     0 -532.86047    0 3126 -631.17045 -532.86047  15.6%     - 40150s
     0     0 -532.87421    0 3134 -631.17045 -532.87421  15.6%     - 40159s
     0     0 -532.96399    0 3133 -631.17045 -532.96399  15.6%     - 40165s
     0     0 -532.96399    0 3131 -631.17045 -532.96399  15.6%     - 40167s
     0     0 -533.28979    0 3144 -631.17045 -533.28979  15.5%     - 40243s
     0     0 -533.47607    0 3134 -631.17045 -533.47607  15.5%     - 40328s
     0     0 -533.48026    0 3138 -631.17045 -533.48026  15.5%     - 40338s
     0     0 -533.48026    0 3141 -631.17045 -533.48026  15.5%     - 40342s
     0     0 -534.17906    0 3038 -631.17045 -534.17906  15.4%     - 41851s
     0     0 -534.33370    0 3117 -631.17045 -534.33370  15.3%     - 42047s
     0     0 -534.33370    0 3115 -631.17045 -534.33370  15.3%     - 42053s
     0     0 -534.80695    0 3010 -631.17045 -534.80695  15.3%     - 43547s
     0     0 -534.89829    0 3047 -631.17045 -534.89829  15.3%     - 43706s
     0     0 -534.89829    0 2986 -631.17045 -534.89829  15.3%     - 43712s
     0     0 -536.20215    0 3103 -631.17045 -536.20215  15.0%     - 71453s
     0     0 -536.31103    0 3152 -631.17045 -536.31103  15.0%     - 71565s
     0     0 -536.33203    0 3150 -631.17045 -536.33203  15.0%     - 71611s
     0     0 -536.33203    0 3149 -631.17045 -536.33203  15.0%     - 71618s
     0     0 -536.50810    0 3141 -631.17045 -536.50810  15.0%     - 72399s
     0     0 -536.81618    0 3146 -631.17045 -536.81618  14.9%     - 73055s
     0     0 -536.83013    0 3154 -631.17045 -536.83013  14.9%     - 73082s
     0     0 -536.83013    0 3157 -631.17045 -536.83013  14.9%     - 73091s
     0     0 -537.11506    0 3146 -631.17045 -537.11506  14.9%     - 73450s
H    0     0                    -630.0557738 -537.11506  14.8%     - 73563s
     0     0 -537.14306    0 3146 -630.05577 -537.14306  14.7%     - 74152s
     0     0 -537.35748    0 3154 -630.05577 -537.35748  14.7%     - 76386s
     0     0 -537.39514    0 3155 -630.05577 -537.39514  14.7%     - 76450s
     0     0 -537.39514    0 3158 -630.05577 -537.39514  14.7%     - 76456s
     0     0 -537.58899    0 3064 -630.05577 -537.58899  14.7%     - 76725s
     0     0 -537.64717    0 3150 -630.05577 -537.64717  14.7%     - 76901s
     0     0 -537.65663    0 3149 -630.05577 -537.65663  14.7%     - 76927s
     0     0 -537.66718    0 3076 -630.05577 -537.66718  14.7%     - 76961s
     0     0 -537.66758    0 3076 -630.05577 -537.66758  14.7%     - 76968s
     0     0 -538.01552    0 3141 -630.05577 -538.01552  14.6%     - 77385s
     0     0 -538.14909    0 3152 -630.05577 -538.14909  14.6%     - 78084s
     0     0 -538.18536    0 3152 -630.05577 -538.18536  14.6%     - 78102s
     0     0 -538.20901    0 3152 -630.05577 -538.20901  14.6%     - 78112s
     0     0 -538.21244    0 3150 -630.05577 -538.21244  14.6%     - 78119s
     0     0 -538.21244    0 3151 -630.05577 -538.21244  14.6%     - 78123s
     0     0 -538.71350    0 3147 -630.05577 -538.71350  14.5%     - 78965s
H    0     0                    -599.9584372 -538.71350  10.2%     - 79364s
     0     0 -538.95054    0 3158 -599.95844 -538.95054  10.2%     - 82606s
     0     0 -538.99434    0 3155 -599.95844 -538.99434  10.2%     - 82740s
     0     0 -539.04013    0 3146 -599.95844 -539.04013  10.2%     - 82762s
     0     0 -539.04745    0 3146 -599.95844 -539.04745  10.2%     - 82775s
     0     0 -539.08091    0 3143 -599.95844 -539.08091  10.1%     - 82789s
     0     0 -539.08124    0 3148 -599.95844 -539.08124  10.1%     - 82797s
     0     0 -539.35720    0 3141 -599.95844 -539.35720  10.1%     - 83018s
     0     0 -539.45362    0 3149 -599.95844 -539.45362  10.1%     - 84872s
     0     0 -539.47593    0 3150 -599.95844 -539.47593  10.1%     - 84915s
     0     0 -539.47796    0 3143 -599.95844 -539.47796  10.1%     - 84937s
     0     0          -    0      -599.95844 -539.47796  10.1%     - 86400s

Cutting planes:
  Gomory: 2
  Zero half: 325

Explored 1 nodes (2673885 simplex iterations) in 86400.31 seconds
Thread count was 1 (of 80 available processors)

Solution count 10: -599.958 -630.056 -631.17 ... -710.454

Time limit reached
Best objective -5.999584371534e+02, best bound -5.394779590857e+02, gap 10.0808%
